p edge 30 77
e 1 7
e 1 4
e 1 24
e 1 8
e 2 10
e 2 20
e 2 23
e 2 16
e 2 7
e 2 6
e 2 3
e 2 9
e 2 18
e 3 6
e 3 7
e 3 17
e 3 23
e 4 16
e 4 11
e 4 28
e 4 24
e 4 8
e 5 16
e 5 8
e 5 17
e 5 15
e 6 20
e 6 26
e 6 17
e 6 7
e 6 9
e 7 26
e 7 17
e 7 23
e 8 12
e 8 24
e 9 25
e 9 26
e 9 15
e 9 12
e 9 10
e 9 28
e 10 12
e 11 29
e 11 28
e 11 21
e 11 23
e 11 16
e 11 22
e 13 18
e 13 26
e 13 23
e 13 14
e 13 21
e 14 16
e 14 21
e 15 29
e 15 16
e 15 28
e 15 17
e 16 20
e 16 26
e 16 19
e 16 23
e 16 22
e 17 26
e 17 23
e 19 26
e 20 23
e 20 24
e 21 28
e 22 24
e 22 23
e 23 29
e 25 29
e 25 30
e 27 30
